50 10 50
10 20 30
4 40 25
3 20 10
10 25 5
10 15 6
3 40 100
6 12 45
1 5 7
5 40 30
10 15 25
1 2 3
2 3 4
1 3 4
2 4 5
3 4 5
4 5 6
6 7 8
10 19 12
5 7 20
6 3 15
2 1 3
4 5 6
10 9 8
9 8 7
7 6 5
5 4 3
3 2 1
1 4 5
1 6 7
2 5 6
10 12 14
4 5 6
10 7 4
1 4 2
1 2 3
2 3 4
3 4 5
1 5 6
1 4 6
1 2 5
1 6 7
1 2 3
1 4 5
1 6 7
1 8 10
1 8 1
1 2 3
1 3 4
1 1 1
1 0 0
